************************************************************************
file with basedata            : n/a
initial value random generator: n/a
************************************************************************
projects                      :  1
jobs (incl. supersource/sink ):  32
horizon                       :  149
RESOURCES
  - renewable                 :  4   R
  - nonrenewable              :  0   N
  - doubly constrained        :  0   D
************************************************************************
PROJECT INFORMATION:
pronr.  #jobs rel.date duedate tardcost  MPM-Time
    1     30      0       48       10       48
************************************************************************
PRECEDENCE RELATIONS:
jobnr.    #modes  #successors   successors
   1        1          3           2   3   4
   2        1          3           7   9  17
   3        1          1          20
   4        1          1           5
   5        1          3           6   8  25
   6        1          3          10  11  12
   7        1          3          14  16  19
   8        1          1          13
   9        1          2          15  18
  10        1          1          17
  11        1          1          17
  12        1          2          26  31
  13        1          1          14
  14        1          2          24  30
  15        1          1          29
  16        1          3          21  22  28
  17        1          1          23
  18        1          2          19  30
  19        1          1          21
  20        1          1          23
  21        1          1          27
  22        1          1          23
  23        1          2          24  31
  24        1          1          27
  25        1          1          27
  26        1          1          28
  27        1          1          29
  28        1          1          30
  29        1          1          32
  30        1          1          32
  31        1          1          32
  32        1          0        
************************************************************************
REQUESTS/DURATIONS:
jobnr. mode duration  R 1  R 2  R 3  R 4
------------------------------------------------------------------------
  1      1     0    
  2      1     6       7   4   7   7   7   7
                       8   4   8   8   8   8
                       0   0   0   0   0   0
                       0   0   0   0   0   0
  3      1     5       5   5   5   3   3
                       0   0   0   0   0
                       0   0   0   0   0
                       0   0   0   0   0
  4      1     9       3   3   2   3   3   3   3   3   3
                       0   0   0   0   0   0   0   0   0
                      10  10   5  10  10  10  10  10  10
                       0   0   0   0   0   0   0   0   0
  5      1     1       6
                       0
                      10
                      10
  6      1     7       0   0   0   0   0   0   0
                       0   0   0   0   0   0   0
                       5  10  10  10  10  10   5
                       3   6   6   6   6   6   3
  7      1     7       8   4   8   8   8   8   8
                       6   3   6   6   6   6   6
                       0   0   0   0   0   0   0
                       4   2   4   4   4   4   4
  8      1     3       6   6   6
                       0   0   0
                       5   5   5
                       5   5   5
  9      1     3       1   1   1
                       1   2   1
                       3   5   3
                       5   9   5
 10      1     7       2   4   4   4   4   4   4
                       0   0   0   0   0   0   0
                       5  10  10  10  10  10  10
                       0   0   0   0   0   0   0
 11      1     2       2   2
                       0   0
                       0   0
                       0   0
 12      1     3       8   8   4
                       1   1   1
                       5   5   3
                       7   7   4
 13      1     3       0   0   0
                       4   4   4
                       8   8   8
                       0   0   0
 14      1    10       0   0   0   0   0   0   0   0   0   0
                       4   2   4   4   4   4   2   2   2   4
                       0   0   0   0   0   0   0   0   0   0
                       0   0   0   0   0   0   0   0   0   0
 15      1     3       0   0   0
                       0   0   0
                       4   2   4
                      10   5  10
 16      1     4       0   0   0   0
                       4   8   8   8
                       0   0   0   0
                       0   0   0   0
 17      1     7      10  10  10  10  10   5  10
                       0   0   0   0   0   0   0
                       0   0   0   0   0   0   0
                       0   0   0   0   0   0   0
 18      1     6      10  10   5   5  10   5
                       0   0   0   0   0   0
                       2   2   1   1   2   1
                       7   7   4   4   7   4
 19      1     2       0   0
                       0   0
                       0   0
                      10  10
 20      1     2       0   0
                       5   5
                       0   0
                       0   0
 21      1    10       3   3   3   2   2   3   2   2   2   2
                       0   0   0   0   0   0   0   0   0   0
                       4   4   4   2   2   4   2   2   2   2
                       1   1   1   1   1   1   1   1   1   1
 22      1     7       5   3   5   5   5   5   5
                       5   3   5   5   5   5   5
                       0   0   0   0   0   0   0
                       7   4   7   7   7   7   7
 23      1     1       0
                       0
                       0
                       6
 24      1     3       3   3   3
                       0   0   0
                       0   0   0
                       2   2   2
 25      1     9       1   1   1   1   1   1   1   1   1
                       0   0   0   0   0   0   0   0   0
                       0   0   0   0   0   0   0   0   0
                       4   4   4   2   4   4   2   4   2
 26      1     1       9
                       0
                       0
                       0
 27      1     5       0   0   0   0   0
                       6   6   6   6   3
                       0   0   0   0   0
                       3   3   3   3   2
 28      1     4       0   0   0   0
                       0   0   0   0
                       0   0   0   0
                       7   7   7   7
 29      1     8       5  10  10   5  10  10  10   5
                       2   3   3   2   3   3   3   2
                       0   0   0   0   0   0   0   0
                       0   0   0   0   0   0   0   0
 30      1     8       0   0   0   0   0   0   0   0
                       2   1   2   2   2   2   2   2
                       9   5   9   9   9   9   9   9
                       8   4   8   8   8   8   8   8
 31      1     3       8   4   8
                       4   2   4
                       0   0   0
                       0   0   0
 32      1     0    
************************************************************************
RESOURCEAVAILABILITIES:
  R 1  R 2  R 3  R 4

  18  18  18  18  18  18  18  18  18  18  18  18  18   9  18   9  18  18   9  18  18   9   9   9  18  18  18   9  18  18   9   9  18  18   9  18  18  18  18  18  18  18  18  18  18   9  18  18  18  18  18  18  18  18   9  18  18  18  18  18  18  18  18  18   9  18  18  18   9  18  18  18  18  18  18  18   9  18  18  18  18  18  18  18  18  18  18  18  18  18  18  18   9  18  18  18  18   9   9  18  18  18   9  18  18  18  18  18  18  18  18   9   9   9  18  18   9  18  18  18  18  18   9   9  18  18  18  18  18   9   9  18  18  18  18  18  18  18   9  18   9  18  18  18   9   9   9  18  18

  11  11  11  11  11  11  11  11  11  11  11  11  11   6  11   6  11  11   6  11  11   6   6   6  11  11  11   6  11  11   6   6  11  11   6  11  11  11  11  11  11  11  11  11  11   6  11  11  11  11  11  11  11  11   6  11  11  11  11  11  11  11  11  11   6  11  11  11   6  11  11  11  11  11  11  11   6  11  11  11  11  11  11  11  11  11  11  11  11  11  11  11   6  11  11  11  11   6   6  11  11  11   6  11  11  11  11  11  11  11  11   6   6   6  11  11   6  11  11  11  11  11   6   6  11  11  11  11  11   6   6  11  11  11  11  11  11  11   6  11   6  11  11  11   6   6   6  11  11

  16  16  16  16  16  16  16  16  16  16  16  16  16   8  16   8  16  16   8  16  16   8   8   8  16  16  16   8  16  16   8   8  16  16   8  16  16  16  16  16  16  16  16  16  16   8  16  16  16  16  16  16  16  16   8  16  16  16  16  16  16  16  16  16   8  16  16  16   8  16  16  16  16  16  16  16   8  16  16  16  16  16  16  16  16  16  16  16  16  16  16  16   8  16  16  16  16   8   8  16  16  16   8  16  16  16  16  16  16  16  16   8   8   8  16  16   8  16  16  16  16  16   8   8  16  16  16  16  16   8   8  16  16  16  16  16  16  16   8  16   8  16  16  16   8   8   8  16  16

  23  23  23  23  23  23  23  23  23  23  23  23  23  12  23  12  23  23  12  23  23  12  12  12  23  23  23  12  23  23  12  12  23  23  12  23  23  23  23  23  23  23  23  23  23  12  23  23  23  23  23  23  23  23  12  23  23  23  23  23  23  23  23  23  12  23  23  23  12  23  23  23  23  23  23  23  12  23  23  23  23  23  23  23  23  23  23  23  23  23  23  23  12  23  23  23  23  12  12  23  23  23  12  23  23  23  23  23  23  23  23  12  12  12  23  23  12  23  23  23  23  23  12  12  23  23  23  23  23  12  12  23  23  23  23  23  23  23  12  23  12  23  23  23  12  12  12  23  23

************************************************************************
